Set parameter TokenServer to value "hpc-licenses.hpcc.usc.edu"
Set parameter TimeLimit to value 3600
Gurobi Optimizer version 9.5.1 build v9.5.1rc2 (linux64)
Thread count: 20 physical cores, 20 logical processors, using up to 20 threads
Optimize a model with 6007 rows, 4529 columns and 24534 nonzeros
Model fingerprint: 0x832642fe
Variable types: 4506 continuous, 23 integer (23 binary)
Coefficient statistics:
  Matrix range     [1e+00, 1e+00]
  Objective range  [3e-06, 1e+00]
  Bounds range     [1e+00, 1e+00]
  RHS range        [1e+00, 1e+02]
Presolve removed 1520 rows and 1515 columns
Presolve time: 0.16s
Presolved: 4487 rows, 3014 columns, 21975 nonzeros
Variable types: 2994 continuous, 20 integer (20 binary)
Found heuristic solution: objective 259.2830904
Found heuristic solution: objective 259.5141983

Root relaxation: objective 2.710206e+02, 2640 iterations, 0.08 seconds (0.10 work units)

    Nodes    |    Current Node    |     Objective Bounds      |     Work
 Expl Unexpl |  Obj  Depth IntInf | Incumbent    BestBd   Gap | It/Node Time

     0     0  271.02056    0    2  259.51420  271.02056  4.43%     -    0s
     0     0  270.47609    0    2  259.51420  270.47609  4.22%     -    0s
     0     0  270.18030    0    2  259.51420  270.18030  4.11%     -    0s
H    0     0                     261.8342706  269.92660  3.09%     -    0s
     0     0  269.92660    0    2  261.83427  269.92660  3.09%     -    0s
     0     0  269.91515    0    2  261.83427  269.91515  3.09%     -    0s
     0     0  269.18343    0    6  261.83427  269.18343  2.81%     -    0s
     0     0  269.16541    0    6  261.83427  269.16541  2.80%     -    0s
     0     0  269.10295    0    6  261.83427  269.10295  2.78%     -    0s
     0     0  269.05949    0    6  261.83427  269.05949  2.76%     -    0s
     0     0  269.00555    0    6  261.83427  269.00555  2.74%     -    0s
     0     0  268.95771    0    5  261.83427  268.95771  2.72%     -    0s
     0     0  268.94516    0    5  261.83427  268.94516  2.72%     -    0s
     0     0  268.92729    0    5  261.83427  268.92729  2.71%     -    0s
     0     0  268.91663    0    5  261.83427  268.91663  2.70%     -    0s
     0     0  268.91036    0    5  261.83427  268.91036  2.70%     -    0s
     0     0  268.90968    0    5  261.83427  268.90968  2.70%     -    0s
     0     0  268.90967    0    2  261.83427  268.90967  2.70%     -    0s
     0     0  268.50158    0    5  261.83427  268.50158  2.55%     -    1s
     0     0  268.50158    0    5  261.83427  268.50158  2.55%     -    1s
     0     0  268.50158    0    5  261.83427  268.50158  2.55%     -    1s
     0     0  268.50158    0    5  261.83427  268.50158  2.55%     -    1s
     0     0  268.50158    0    5  261.83427  268.50158  2.55%     -    1s
     0     0  268.50158    0    5  261.83427  268.50158  2.55%     -    1s
     0     0  268.50158    0    5  261.83427  268.50158  2.55%     -    1s
     0     0  268.50158    0    5  261.83427  268.50158  2.55%     -    1s
     0     0  268.50158    0    8  261.83427  268.50158  2.55%     -    1s
H    0     0                     263.3579651  268.50158  1.95%     -    1s
H    0     0                     264.5946595  268.26665  1.39%     -    1s
     0     0  268.26665    0    8  264.59466  268.26665  1.39%     -    1s
     0     0  268.26665    0    5  264.59466  268.26665  1.39%     -    1s
     0     0  268.24206    0    5  264.59466  268.24206  1.38%     -    1s
     0     0  267.91020    0    5  264.59466  267.91020  1.25%     -    1s
     0     0  267.91020    0    2  264.59466  267.91020  1.25%     -    1s
     0     0  267.91020    0    2  264.59466  267.91020  1.25%     -    1s
     0     0  267.91020    0    4  264.59466  267.91020  1.25%     -    2s
     0     0  267.91020    0    5  264.59466  267.91020  1.25%     -    2s
     0     0  267.91020    0    7  264.59466  267.91020  1.25%     -    2s
     0     0  267.91020    0    7  264.59466  267.91020  1.25%     -    2s
     0     0  267.91020    0    7  264.59466  267.91020  1.25%     -    2s
     0     0  267.91020    0    7  264.59466  267.91020  1.25%     -    2s
     0     0  267.91020    0    4  264.59466  267.91020  1.25%     -    2s
     0     0  267.91020    0    4  264.59466  267.91020  1.25%     -    2s
     0     0  267.91020    0    4  264.59466  267.91020  1.25%     -    2s
     0     0  267.56607    0    6  264.59466  267.56607  1.12%     -    2s
H    0     0                     267.2539402  267.56607  0.12%     -    2s
     0     0  267.51270    0    7  267.25394  267.51270  0.10%     -    2s
     0     0  267.25394    0    6  267.25394  267.25394  0.00%     -    2s

Cutting planes:
  Gomory: 5
  MIR: 221
  Flow cover: 6
  RLT: 3
  Relax-and-lift: 2

Explored 1 nodes (7680 simplex iterations) in 2.63 seconds (1.46 work units)
Thread count was 20 (of 20 available processors)

Solution count 6: 267.254 264.595 263.358 ... 259.283

Optimal solution found (tolerance 1.00e-04)
Best objective 2.672539401832e+02, best bound 2.672539401832e+02, gap 0.0000%



#########node  1
V1.8
#########node  2
0.06862745098039214,0.9313725490196079
#########node  3
1.0,0.0


Total Solving Time 3.0487489700317383
obj value 267.25394018321833
Policy Regret train (Sum) 13.487813242844421
Best Treatment Found train (%) 49.0
treatment classification acc train (%) 35.4
Policy Regret test (Sum) 61.813832268000596
Best Treatment Found test (%) 75.11
treatment classification acc test (%) 33.57
